\* Problem: Unknown *\

Maximize
 obj: 0 x_1

Subject To
 r_1: - x_4 - x_3 - x_2 - x_1 <= -1
 r_2: + x_4 + x_3 + x_2 + x_1 <= 3
 r_3: - x_6 - x_5 - x_4 - x_1 <= -1
 r_4: + x_6 + x_5 + x_4 + x_1 <= 3
 r_5: - x_8 - x_7 - x_9 - x_1 <= -1
 r_6: + x_8 + x_7 + x_9 + x_1 <= 3
 r_7: - x_12 - x_11 - x_10 - x_1 <= -1
 r_8: + x_12 + x_11 + x_10 + x_1 <= 3
 r_9: - x_13 - x_3 - x_5 - x_1 <= -1
 r_10: + x_5 + x_3 + x_13 + x_1 <= 3
 r_11: - x_15 - x_14 - x_3 - x_1 <= -1
 r_12: + x_14 + x_15 + x_3 + x_1 <= 3
 r_13: - x_16 - x_18 - x_17 - x_1 <= -1
 r_14: + x_18 + x_16 + x_17 + x_1 <= 3
 r_15: - x_21 - x_20 - x_19 - x_1 <= -1
 r_16: + x_21 + x_20 + x_19 + x_1 <= 3
 r_17: - x_24 - x_23 - x_22 - x_25 <= -1
 r_18: + x_24 + x_22 + x_23 + x_25 <= 3
 r_19: - x_6 - x_22 - x_12 - x_26 <= -1
 r_20: + x_6 + x_22 + x_12 + x_26 <= 3
 r_21: - x_22 - x_12 - x_4 - x_25 <= -1
 r_22: + x_22 + x_4 + x_12 + x_25 <= 3
 r_23: - x_22 - x_28 - x_27 - x_9 <= -1
 r_24: + x_22 + x_28 + x_27 + x_9 <= 3
 r_25: - x_24 - x_22 - x_29 - x_12 <= -1
 r_26: + x_24 + x_22 + x_29 + x_12 <= 3
 r_27: - x_22 - x_31 - x_30 - x_24 <= -1
 r_28: + x_24 + x_22 + x_30 + x_31 <= 3
 r_29: - x_32 - x_22 - x_18 - x_33 <= -1
 r_30: + x_32 + x_22 + x_18 + x_33 <= 3
 r_31: - x_22 - x_3 - x_35 - x_34 <= -1
 r_32: + x_22 + x_3 + x_35 + x_34 <= 3
 r_33: - x_22 - x_37 - x_36 - x_21 <= -1
 r_34: + x_22 + x_21 + x_36 + x_37 <= 3
 r_35: - x_6 - x_38 - x_4 - x_9 <= -1
 r_36: + x_6 + x_38 + x_4 + x_9 <= 3
 r_37: - x_39 - x_38 - x_25 - x_9 <= -1
 r_38: + x_38 + x_39 + x_25 + x_9 <= 3
 r_39: - x_40 - x_38 - x_21 - x_12 <= -1
 r_40: + x_40 + x_38 + x_21 + x_12 <= 3
 r_41: - x_38 - x_21 - x_10 - x_41 <= -1
 r_42: + x_38 + x_21 + x_10 + x_41 <= 3
 r_43: - x_42 - x_38 - x_18 - x_9 <= -1
 r_44: + x_42 + x_38 + x_18 + x_9 <= 3
 r_45: - x_38 - x_43 - x_44 - x_3 <= -1
 r_46: + x_38 + x_43 + x_44 + x_3 <= 3
 r_47: - x_38 - x_46 - x_45 - x_24 <= -1
 r_48: + x_24 + x_38 + x_45 + x_46 <= 3
 r_49: - x_48 - x_47 - x_38 - x_21 <= -1
 r_50: + x_48 + x_38 + x_21 + x_47 <= 3
 r_51: - x_10 - x_4 - x_2 - x_25 <= -1
 r_52: + x_10 + x_4 + x_2 + x_25 <= 3
 r_53: - x_10 - x_7 - x_39 - x_2 <= -1
 r_54: + x_10 + x_39 + x_7 + x_2 <= 3
 r_55: - x_16 - x_5 - x_2 - x_9 <= -1
 r_56: + x_16 + x_5 + x_2 + x_9 <= 3
 r_57: - x_13 - x_3 - x_2 - x_49 <= -1
 r_58: + x_13 + x_3 + x_2 + x_49 <= 3
 r_59: - x_10 - x_14 - x_3 - x_2 <= -1
 r_60: + x_10 + x_14 + x_3 + x_2 <= 3
 r_61: - x_50 - x_24 - x_11 - x_2 <= -1
 r_62: + x_24 + x_50 + x_11 + x_2 <= 3
 r_63: - x_8 - x_42 - x_19 - x_2 <= -1
 r_64: + x_42 + x_8 + x_19 + x_2 <= 3
 r_65: - x_21 - x_51 - x_2 - x_17 <= -1
 r_66: + x_21 + x_51 + x_2 + x_17 <= 3
 r_67: - x_9 - x_23 - x_26 - x_33 <= -1
 r_68: + x_9 + x_23 + x_26 + x_33 <= 3
 r_69: - x_23 - x_39 - x_27 - x_25 <= -1
 r_70: + x_39 + x_23 + x_27 + x_25 <= 3
 r_71: - x_10 - x_23 - x_12 - x_34 <= -1
 r_72: + x_10 + x_23 + x_12 + x_34 <= 3
 r_73: - x_24 - x_23 - x_29 - x_52 <= -1
 r_74: + x_24 + x_23 + x_29 + x_52 <= 3
 r_75: - x_24 - x_23 - x_30 - x_27 <= -1
 r_76: + x_24 + x_30 + x_23 + x_27 <= 3
 r_77: - x_32 - x_23 - x_53 - x_21 <= -1
 r_78: + x_32 + x_23 + x_21 + x_53 <= 3
 r_79: - x_36 - x_23 - x_28 - x_42 <= -1
 r_80: + x_36 + x_23 + x_28 + x_42 <= 3
 r_81: - x_12 - x_28 - x_26 - x_25 <= -1
 r_82: + x_12 + x_28 + x_26 + x_25 <= 3
 r_83: - x_5 - x_29 - x_12 - x_26 <= -1
 r_84: + x_5 + x_29 + x_12 + x_26 <= 3
 r_85: - x_31 - x_3 - x_27 - x_26 <= -1
 r_86: + x_3 + x_31 + x_27 + x_26 <= 3
 r_87: - x_24 - x_18 - x_35 - x_26 <= -1
 r_88: + x_18 + x_24 + x_35 + x_26 <= 3
 r_89: - x_54 - x_30 - x_21 - x_26 <= -1
 r_90: + x_54 + x_30 + x_21 + x_26 <= 3
 r_91: - x_32 - x_29 - x_28 - x_26 <= -1
 r_92: + x_32 + x_29 + x_28 + x_26 <= 3
 r_93: - x_34 - x_37 - x_28 - x_26 <= -1
 r_94: + x_34 + x_37 + x_28 + x_26 <= 3
 r_95: - x_39 - x_6 - x_21 - x_9 <= -1
 r_96: + x_6 + x_21 + x_39 + x_9 <= 3
 r_97: - x_40 - x_6 - x_5 - x_18 <= -1
 r_98: + x_40 + x_6 + x_5 + x_18 <= 3
 r_99: - x_6 - x_12 - x_18 - x_9 <= -1
 r_100: + x_6 + x_12 + x_18 + x_9 <= 3
 r_101: - x_24 - x_55 - x_6 - x_41 <= -1
 r_102: + x_24 + x_6 + x_55 + x_41 <= 3
 r_103: - x_46 - x_6 - x_3 - x_42 <= -1
 r_104: + x_46 + x_6 + x_3 + x_42 <= 3
 r_105: - x_6 - x_21 - x_43 - x_18 <= -1
 r_106: + x_6 + x_21 + x_43 + x_18 <= 3
 r_107: - x_56 - x_6 - x_45 - x_21 <= -1
 r_108: + x_56 + x_6 + x_21 + x_45 <= 3
 r_109: - x_47 - x_6 - x_44 - x_28 <= -1
 r_110: + x_6 + x_28 + x_44 + x_47 <= 3
 r_111: - x_16 - x_7 - x_4 - x_10 <= -1
 r_112: + x_16 + x_7 + x_4 + x_10 <= 3
 r_113: - x_5 - x_4 - x_3 - x_12 <= -1
 r_114: + x_5 + x_12 + x_3 + x_4 <= 3
 r_115: - x_4 - x_3 - x_10 - x_9 <= -1
 r_116: + x_4 + x_3 + x_10 + x_9 <= 3
 r_117: - x_8 - x_13 - x_4 - x_18 <= -1
 r_118: + x_8 + x_13 + x_4 + x_18 <= 3
 r_119: - x_8 - x_14 - x_4 - x_24 <= -1
 r_120: + x_24 + x_14 + x_4 + x_8 <= 3
 r_121: - x_16 - x_3 - x_4 - x_11 <= -1
 r_122: + x_16 + x_3 + x_4 + x_11 <= 3
 r_123: - x_16 - x_4 - x_19 - x_57 <= -1
 r_124: + x_16 + x_4 + x_19 + x_57 <= 3
 r_125: - x_28 - x_4 - x_49 - x_17 <= -1
 r_126: + x_28 + x_4 + x_49 + x_17 <= 3
 r_127: - x_15 - x_21 - x_4 - x_50 <= -1
 r_128: + x_15 + x_21 + x_4 + x_50 <= 3
 r_129: - x_24 - x_12 - x_9 - x_25 <= -1
 r_130: + x_24 + x_12 + x_9 + x_25 <= 3
 r_131: - x_24 - x_27 - x_10 - x_25 <= -1
 r_132: + x_24 + x_27 + x_10 + x_25 <= 3
 r_133: - x_29 - x_3 - x_33 - x_25 <= -1
 r_134: + x_29 + x_3 + x_33 + x_25 <= 3
 r_135: - x_42 - x_30 - x_33 - x_25 <= -1
 r_136: + x_42 + x_30 + x_33 + x_25 <= 3
 r_137: - x_32 - x_28 - x_58 - x_25 <= -1
 r_138: + x_32 + x_28 + x_58 + x_25 <= 3
 r_139: - x_24 - x_28 - x_34 - x_25 <= -1
 r_140: + x_24 + x_28 + x_34 + x_25 <= 3
 r_141: - x_21 - x_52 - x_35 - x_25 <= -1
 r_142: + x_21 + x_52 + x_35 + x_25 <= 3
 r_143: - x_16 - x_31 - x_36 - x_25 <= -1
 r_144: + x_16 + x_31 + x_36 + x_25 <= 3
 r_145: - x_40 - x_39 - x_55 - x_3 <= -1
 r_146: + x_40 + x_55 + x_39 + x_3 <= 3
 r_147: - x_10 - x_39 - x_42 - x_9 <= -1
 r_148: + x_10 + x_39 + x_42 + x_9 <= 3
 r_149: - x_39 - x_27 - x_42 - x_41 <= -1
 r_150: + x_39 + x_27 + x_42 + x_41 <= 3
 r_151: - x_24 - x_39 - x_44 - x_18 <= -1
 r_152: + x_24 + x_39 + x_44 + x_18 <= 3
 r_153: - x_39 - x_59 - x_21 - x_43 <= -1
 r_154: + x_59 + x_21 + x_39 + x_43 <= 3
 r_155: - x_42 - x_39 - x_21 - x_45 <= -1
 r_156: + x_42 + x_39 + x_45 + x_21 <= 3
 r_157: - x_48 - x_39 - x_46 - x_16 <= -1
 r_158: + x_16 + x_46 + x_39 + x_48 <= 3
 r_159: - x_24 - x_7 - x_5 - x_49 <= -1
 r_160: + x_24 + x_7 + x_5 + x_49 <= 3
 r_161: - x_7 - x_14 - x_27 - x_10 <= -1
 r_162: + x_14 + x_7 + x_27 + x_10 <= 3
 r_163: - x_7 - x_13 - x_60 - x_21 <= -1
 r_164: + x_7 + x_21 + x_60 + x_13 <= 3
 r_165: - x_42 - x_7 - x_3 - x_50 <= -1
 r_166: + x_42 + x_7 + x_3 + x_50 <= 3
 r_167: - x_16 - x_7 - x_51 - x_11 <= -1
 r_168: + x_16 + x_51 + x_7 + x_11 <= 3
 r_169: - x_16 - x_7 - x_14 - x_19 <= -1
 r_170: + x_16 + x_14 + x_7 + x_19 <= 3
 r_171: - x_40 - x_46 - x_18 - x_9 <= -1
 r_172: + x_40 + x_46 + x_18 + x_9 <= 3
 r_173: - x_40 - x_61 - x_21 - x_41 <= -1
 r_174: + x_40 + x_21 + x_61 + x_41 <= 3
 r_175: - x_40 - x_29 - x_43 - x_18 <= -1
 r_176: + x_40 + x_29 + x_43 + x_18 <= 3
 r_177: - x_40 - x_56 - x_28 - x_42 <= -1
 r_178: + x_56 + x_40 + x_28 + x_42 <= 3
 r_179: - x_40 - x_47 - x_21 - x_11 <= -1
 r_180: + x_40 + x_47 + x_21 + x_11 <= 3
 r_181: - x_8 - x_5 - x_3 - x_10 <= -1
 r_182: + x_8 + x_5 + x_3 + x_10 <= 3
 r_183: - x_29 - x_5 - x_11 - x_13 <= -1
 r_184: + x_29 + x_13 + x_11 + x_5 <= 3
 r_185: - x_11 - x_5 - x_3 - x_18 <= -1
 r_186: + x_11 + x_5 + x_3 + x_18 <= 3
 r_187: - x_14 - x_5 - x_21 - x_57 <= -1
 r_188: + x_14 + x_21 + x_5 + x_57 <= 3
 r_189: - x_16 - x_15 - x_5 - x_28 <= -1
 r_190: + x_16 + x_15 + x_5 + x_28 <= 3
 r_191: - x_8 - x_5 - x_11 - x_17 <= -1
 r_192: + x_8 + x_5 + x_11 + x_17 <= 3
 r_193: - x_8 - x_5 - x_20 - x_50 <= -1
 r_194: + x_8 + x_5 + x_20 + x_50 <= 3
 r_195: - x_24 - x_12 - x_27 - x_33 <= -1
 r_196: + x_24 + x_12 + x_27 + x_33 <= 3
 r_197: - x_29 - x_12 - x_18 - x_28 <= -1
 r_198: + x_29 + x_28 + x_18 + x_12 <= 3
 r_199: - x_24 - x_12 - x_3 - x_28 <= -1
 r_200: + x_24 + x_28 + x_3 + x_12 <= 3
 r_201: - x_16 - x_30 - x_12 - x_58 <= -1
 r_202: + x_16 + x_30 + x_12 + x_58 <= 3
 r_203: - x_32 - x_31 - x_12 - x_11 <= -1
 r_204: + x_32 + x_31 + x_12 + x_11 <= 3
 r_205: - x_31 - x_21 - x_12 - x_34 <= -1
 r_206: + x_31 + x_21 + x_12 + x_34 <= 3
 r_207: - x_12 - x_35 - x_28 - x_33 <= -1
 r_208: + x_28 + x_35 + x_12 + x_33 <= 3
 r_209: - x_54 - x_12 - x_36 - x_33 <= -1
 r_210: + x_54 + x_36 + x_12 + x_33 <= 3
 r_211: - x_8 - x_37 - x_12 - x_52 <= -1
 r_212: + x_8 + x_37 + x_52 + x_12 <= 3
 r_213: - x_42 - x_44 - x_41 - x_9 <= -1
 r_214: + x_42 + x_44 + x_41 + x_9 <= 3
 r_215: - x_21 - x_3 - x_18 - x_9 <= -1
 r_216: + x_21 + x_3 + x_18 + x_9 <= 3
 r_217: - x_24 - x_21 - x_42 - x_9 <= -1
 r_218: + x_24 + x_21 + x_42 + x_9 <= 3
 r_219: - x_55 - x_28 - x_43 - x_9 <= -1
 r_220: + x_55 + x_28 + x_43 + x_9 <= 3
 r_221: - x_16 - x_55 - x_45 - x_9 <= -1
 r_222: + x_16 + x_55 + x_45 + x_9 <= 3
 r_223: - x_46 - x_21 - x_44 - x_9 <= -1
 r_224: + x_46 + x_21 + x_44 + x_9 <= 3
 r_225: - x_8 - x_47 - x_59 - x_9 <= -1
 r_226: + x_8 + x_47 + x_59 + x_9 <= 3
 r_227: - x_48 - x_56 - x_33 - x_9 <= -1
 r_228: + x_56 + x_48 + x_33 + x_9 <= 3
 r_229: - x_13 - x_28 - x_10 - x_57 <= -1
 r_230: + x_13 + x_28 + x_10 + x_57 <= 3
 r_231: - x_16 - x_24 - x_3 - x_10 <= -1
 r_232: + x_24 + x_16 + x_3 + x_10 <= 3
 r_233: - x_16 - x_14 - x_42 - x_10 <= -1
 r_234: + x_42 + x_14 + x_16 + x_10 <= 3
 r_235: - x_21 - x_11 - x_10 - x_49 <= -1
 r_236: + x_21 + x_11 + x_10 + x_49 <= 3
 r_237: - x_34 - x_19 - x_10 - x_49 <= -1
 r_238: + x_34 + x_19 + x_10 + x_49 <= 3
 r_239: - x_8 - x_60 - x_10 - x_17 <= -1
 r_240: + x_8 + x_60 + x_10 + x_17 <= 3
 r_241: - x_8 - x_50 - x_16 - x_10 <= -1
 r_242: + x_16 + x_50 + x_8 + x_10 <= 3
 r_243: - x_15 - x_51 - x_10 - x_33 <= -1
 r_244: + x_15 + x_51 + x_10 + x_33 <= 3
 r_245: - x_21 - x_29 - x_27 - x_58 <= -1
 r_246: + x_21 + x_29 + x_27 + x_58 <= 3
 r_247: - x_24 - x_42 - x_27 - x_34 <= -1
 r_248: + x_42 + x_24 + x_27 + x_34 <= 3
 r_249: - x_14 - x_30 - x_27 - x_34 <= -1
 r_250: + x_14 + x_30 + x_27 + x_34 <= 3
 r_251: - x_16 - x_28 - x_27 - x_52 <= -1
 r_252: + x_16 + x_52 + x_27 + x_28 <= 3
 r_253: - x_35 - x_53 - x_27 - x_33 <= -1
 r_254: + x_35 + x_53 + x_27 + x_33 <= 3
 r_255: - x_36 - x_27 - x_34 - x_33 <= -1
 r_256: + x_36 + x_27 + x_34 + x_33 <= 3
 r_257: - x_16 - x_59 - x_18 - x_41 <= -1
 r_258: + x_16 + x_59 + x_18 + x_41 <= 3
 r_259: - x_14 - x_45 - x_42 - x_41 <= -1
 r_260: + x_14 + x_45 + x_42 + x_41 <= 3
 r_261: - x_48 - x_21 - x_34 - x_41 <= -1
 r_262: + x_48 + x_21 + x_34 + x_41 <= 3
 r_263: - x_15 - x_11 - x_13 - x_3 <= -1
 r_264: + x_11 + x_13 + x_15 + x_3 <= 3
 r_265: - x_43 - x_13 - x_11 - x_17 <= -1
 r_266: + x_43 + x_13 + x_11 + x_17 <= 3
 r_267: - x_16 - x_46 - x_13 - x_20 <= -1
 r_268: + x_16 + x_46 + x_13 + x_20 <= 3
 r_269: - x_24 - x_31 - x_29 - x_28 <= -1
 r_270: + x_24 + x_31 + x_29 + x_28 <= 3
 r_271: - x_32 - x_43 - x_29 - x_35 <= -1
 r_272: + x_32 + x_43 + x_29 + x_35 <= 3
 r_273: - x_11 - x_29 - x_28 - x_35 <= -1
 r_274: + x_11 + x_29 + x_28 + x_35 <= 3
 r_275: - x_8 - x_54 - x_29 - x_34 <= -1
 r_276: + x_8 + x_54 + x_29 + x_34 <= 3
 r_277: - x_46 - x_29 - x_37 - x_33 <= -1
 r_278: + x_46 + x_37 + x_29 + x_33 <= 3
 r_279: - x_42 - x_55 - x_21 - x_18 <= -1
 r_280: + x_42 + x_55 + x_21 + x_18 <= 3
 r_281: - x_46 - x_11 - x_43 - x_18 <= -1
 r_282: + x_46 + x_11 + x_43 + x_18 <= 3
 r_283: - x_46 - x_21 - x_28 - x_18 <= -1
 r_284: + x_46 + x_21 + x_28 + x_18 <= 3
 r_285: - x_61 - x_45 - x_18 - x_33 <= -1
 r_286: + x_61 + x_45 + x_18 + x_33 <= 3
 r_287: - x_56 - x_44 - x_18 - x_8 <= -1
 r_288: + x_8 + x_56 + x_44 + x_18 <= 3
 r_289: - x_46 - x_47 - x_55 - x_18 <= -1
 r_290: + x_46 + x_55 + x_47 + x_18 <= 3
 r_291: - x_16 - x_14 - x_3 - x_49 <= -1
 r_292: + x_16 + x_14 + x_3 + x_49 <= 3
 r_293: - x_8 - x_11 - x_28 - x_3 <= -1
 r_294: + x_8 + x_11 + x_28 + x_3 <= 3
 r_295: - x_16 - x_21 - x_8 - x_3 <= -1
 r_296: + x_8 + x_21 + x_16 + x_3 <= 3
 r_297: - x_19 - x_60 - x_3 - x_44 <= -1
 r_298: + x_19 + x_44 + x_3 + x_60 <= 3
 r_299: - x_46 - x_3 - x_57 - x_17 <= -1
 r_300: + x_46 + x_3 + x_57 + x_17 <= 3
 r_301: - x_33 - x_3 - x_50 - x_57 <= -1
 r_302: + x_33 + x_3 + x_50 + x_57 <= 3
 r_303: - x_8 - x_15 - x_3 - x_49 <= -1
 r_304: + x_8 + x_15 + x_3 + x_49 <= 3
 r_305: - x_55 - x_51 - x_20 - x_3 <= -1
 r_306: + x_51 + x_20 + x_3 + x_55 <= 3
 r_307: - x_24 - x_30 - x_52 - x_34 <= -1
 r_308: + x_24 + x_30 + x_52 + x_34 <= 3
 r_309: - x_24 - x_54 - x_32 - x_46 <= -1
 r_310: + x_32 + x_46 + x_24 + x_54 <= 3
 r_311: - x_24 - x_21 - x_28 - x_33 <= -1
 r_312: + x_24 + x_21 + x_28 + x_33 <= 3
 r_313: - x_24 - x_16 - x_34 - x_33 <= -1
 r_314: + x_16 + x_24 + x_34 + x_33 <= 3
 r_315: - x_24 - x_8 - x_35 - x_58 <= -1
 r_316: + x_8 + x_24 + x_35 + x_58 <= 3
 r_317: - x_44 - x_36 - x_58 - x_24 <= -1
 r_318: + x_24 + x_44 + x_36 + x_58 <= 3
 r_319: - x_24 - x_31 - x_52 - x_33 <= -1
 r_320: + x_24 + x_31 + x_52 + x_33 <= 3
 r_321: - x_24 - x_55 - x_37 - x_53 <= -1
 r_322: + x_24 + x_55 + x_53 + x_37 <= 3
 r_323: - x_8 - x_61 - x_43 - x_42 <= -1
 r_324: + x_8 + x_61 + x_43 + x_42 <= 3
 r_325: - x_16 - x_21 - x_44 - x_42 <= -1
 r_326: + x_16 + x_21 + x_44 + x_42 <= 3
 r_327: - x_34 - x_45 - x_44 - x_42 <= -1
 r_328: + x_34 + x_45 + x_44 + x_42 <= 3
 r_329: - x_46 - x_59 - x_42 - x_33 <= -1
 r_330: + x_46 + x_59 + x_42 + x_33 <= 3
 r_331: - x_48 - x_55 - x_44 - x_42 <= -1
 r_332: + x_48 + x_55 + x_44 + x_42 <= 3
 r_333: - x_14 - x_60 - x_11 - x_33 <= -1
 r_334: + x_14 + x_60 + x_11 + x_33 <= 3
 r_335: - x_16 - x_14 - x_34 - x_50 <= -1
 r_336: + x_34 + x_14 + x_16 + x_50 <= 3
 r_337: - x_14 - x_45 - x_19 - x_50 <= -1
 r_338: + x_14 + x_45 + x_19 + x_50 <= 3
 r_339: - x_8 - x_14 - x_44 - x_51 <= -1
 r_340: + x_8 + x_14 + x_44 + x_51 <= 3
 r_341: - x_30 - x_53 - x_28 - x_44 <= -1
 r_342: + x_30 + x_53 + x_44 + x_28 <= 3
 r_343: - x_30 - x_45 - x_36 - x_34 <= -1
 r_344: + x_30 + x_45 + x_36 + x_34 <= 3
 r_345: - x_32 - x_37 - x_28 - x_35 <= -1
 r_346: + x_32 + x_37 + x_28 + x_35 <= 3
 r_347: - x_56 - x_46 - x_21 - x_43 <= -1
 r_348: + x_56 + x_46 + x_21 + x_43 <= 3
 r_349: - x_46 - x_47 - x_35 - x_43 <= -1
 r_350: + x_46 + x_35 + x_47 + x_43 <= 3
 r_351: - x_16 - x_8 - x_11 - x_57 <= -1
 r_352: + x_8 + x_16 + x_11 + x_57 <= 3
 r_353: - x_15 - x_35 - x_11 - x_17 <= -1
 r_354: + x_35 + x_15 + x_11 + x_17 <= 3
 r_355: - x_8 - x_15 - x_46 - x_11 <= -1
 r_356: + x_8 + x_46 + x_15 + x_11 <= 3
 r_357: - x_31 - x_20 - x_11 - x_49 <= -1
 r_358: + x_31 + x_20 + x_11 + x_49 <= 3
 r_359: - x_58 - x_28 - x_34 - x_33 <= -1
 r_360: + x_58 + x_28 + x_34 + x_33 <= 3
 r_361: - x_31 - x_46 - x_28 - x_35 <= -1
 r_362: + x_46 + x_28 + x_35 + x_31 <= 3
 r_363: - x_8 - x_31 - x_28 - x_33 <= -1
 r_364: + x_8 + x_31 + x_28 + x_33 <= 3
 r_365: - x_55 - x_54 - x_28 - x_52 <= -1
 r_366: + x_54 + x_52 + x_55 + x_28 <= 3
 r_367: - x_31 - x_37 - x_28 - x_58 <= -1
 r_368: + x_31 + x_37 + x_28 + x_58 <= 3
 r_369: - x_21 - x_44 - x_59 - x_45 <= -1
 r_370: + x_45 + x_44 + x_59 + x_21 <= 3
 r_371: - x_8 - x_55 - x_46 - x_21 <= -1
 r_372: + x_8 + x_46 + x_21 + x_55 <= 3
 r_373: - x_55 - x_21 - x_44 - x_33 <= -1
 r_374: + x_55 + x_21 + x_44 + x_33 <= 3
 r_375: - x_47 - x_31 - x_21 - x_61 <= -1
 r_376: + x_31 + x_61 + x_47 + x_21 <= 3
 r_377: - x_48 - x_21 - x_61 - x_49 <= -1
 r_378: + x_48 + x_61 + x_21 + x_49 <= 3
 r_379: - x_56 - x_55 - x_21 - x_59 <= -1
 r_380: + x_56 + x_55 + x_21 + x_59 <= 3
 r_381: - x_16 - x_51 - x_19 - x_50 <= -1
 r_382: + x_16 + x_51 + x_19 + x_50 <= 3
 r_383: - x_16 - x_8 - x_33 - x_49 <= -1
 r_384: + x_8 + x_16 + x_33 + x_49 <= 3
 r_385: - x_16 - x_44 - x_50 - x_49 <= -1
 r_386: + x_16 + x_44 + x_50 + x_49 <= 3
 r_387: - x_16 - x_15 - x_55 - x_60 <= -1
 r_388: + x_16 + x_55 + x_60 + x_15 <= 3
 r_389: - x_16 - x_51 - x_49 - x_57 <= -1
 r_390: + x_16 + x_51 + x_49 + x_57 <= 3
 r_391: - x_44 - x_52 - x_34 - x_33 <= -1
 r_392: + x_44 + x_52 + x_34 + x_33 <= 3
 r_393: - x_52 - x_50 - x_36 - x_34 <= -1
 r_394: + x_50 + x_52 + x_36 + x_34 <= 3
 r_395: - x_31 - x_53 - x_34 - x_49 <= -1
 r_396: + x_31 + x_53 + x_34 + x_49 <= 3
 r_397: - x_48 - x_45 - x_44 - x_50 <= -1
 r_398: + x_48 + x_45 + x_44 + x_50 <= 3
 r_399: - x_8 - x_15 - x_20 - x_17 <= -1
 r_400: + x_8 + x_15 + x_20 + x_17 <= 3
 r_401: - x_31 - x_54 - x_35 - x_33 <= -1
 r_402: + x_54 + x_31 + x_35 + x_33 <= 3
 r_403: - x_31 - x_15 - x_37 - x_35 <= -1
 r_404: + x_15 + x_37 + x_31 + x_35 <= 3
 r_405: - x_55 - x_46 - x_61 - x_44 <= -1
 r_406: + x_46 + x_61 + x_44 + x_55 <= 3
 r_407: - x_46 - x_15 - x_47 - x_56 <= -1
 r_408: + x_56 + x_46 + x_47 + x_15 <= 3
 r_409: - x_46 - x_31 - x_55 - x_56 <= -1
 r_410: + x_56 + x_46 + x_55 + x_31 <= 3
 r_411: - x_8 - x_60 - x_50 - x_49 <= -1
 r_412: + x_8 + x_60 + x_50 + x_49 <= 3
 r_413: - x_8 - x_15 - x_31 - x_57 <= -1
 r_414: + x_8 + x_31 + x_15 + x_57 <= 3
 r_415: - x_8 - x_55 - x_57 - x_49 <= -1
 r_416: + x_8 + x_55 + x_57 + x_49 <= 3
 r_417: - x_8 - x_20 - x_60 - x_57 <= -1
 r_418: + x_8 + x_60 + x_20 + x_57 <= 3
 r_419: - x_53 - x_36 - x_52 - x_33 <= -1
 r_420: + x_53 + x_52 + x_36 + x_33 <= 3
 r_421: - x_31 - x_55 - x_58 - x_33 <= -1
 r_422: + x_55 + x_31 + x_58 + x_33 <= 3
 r_423: - x_49 - x_52 - x_58 - x_33 <= -1
 r_424: + x_49 + x_52 + x_58 + x_33 <= 3
 r_425: - x_54 - x_53 - x_58 - x_33 <= -1
 r_426: + x_54 + x_53 + x_58 + x_33 <= 3
 r_427: - x_55 - x_44 - x_59 - x_49 <= -1
 r_428: + x_55 + x_44 + x_59 + x_49 <= 3
 r_429: - x_48 - x_44 - x_59 - x_52 <= -1
 r_430: + x_48 + x_52 + x_59 + x_44 <= 3
 r_431: - x_52 - x_51 - x_50 - x_49 <= -1
 r_432: + x_52 + x_51 + x_50 + x_49 <= 3
 r_433: - x_56 - x_15 - x_20 - x_57 <= -1
 r_434: + x_56 + x_15 + x_20 + x_57 <= 3
 r_435: - x_56 - x_31 - x_54 - x_37 <= -1
 r_436: + x_56 + x_54 + x_37 + x_31 <= 3
 r_437: - x_31 - x_54 - x_58 - x_57 <= -1
 r_438: + x_54 + x_31 + x_58 + x_57 <= 3
 r_439: - x_56 - x_55 - x_61 - x_57 <= -1
 r_440: + x_56 + x_55 + x_61 + x_57 <= 3
 r_441: - x_55 - x_61 - x_59 - x_58 <= -1
 r_442: + x_55 + x_61 + x_59 + x_58 <= 3
 r_443: - x_58 - x_60 - x_57 - x_49 <= -1
 r_444: + x_58 + x_60 + x_57 + x_49 <= 3
 r_445: - x_59 - x_60 - x_51 - x_49 <= -1
 r_446: + x_59 + x_60 + x_51 + x_49 <= 3
 r_447: - x_53 - x_52 - x_59 - x_58 <= -1
 r_448: + x_53 + x_52 + x_59 + x_58 <= 3
 r_449: + x_24 = 1
 r_450: + x_28 = 1
 r_451: + x_33 = 1

Bounds
 0 <= x_1 <= 1
 0 <= x_2 <= 1
 0 <= x_3 <= 1
 0 <= x_4 <= 1
 0 <= x_5 <= 1
 0 <= x_6 <= 1
 0 <= x_7 <= 1
 0 <= x_8 <= 1
 0 <= x_9 <= 1
 0 <= x_10 <= 1
 0 <= x_11 <= 1
 0 <= x_12 <= 1
 0 <= x_13 <= 1
 0 <= x_14 <= 1
 0 <= x_15 <= 1
 0 <= x_16 <= 1
 0 <= x_17 <= 1
 0 <= x_18 <= 1
 0 <= x_19 <= 1
 0 <= x_20 <= 1
 0 <= x_21 <= 1
 0 <= x_22 <= 1
 0 <= x_23 <= 1
 0 <= x_24 <= 1
 0 <= x_25 <= 1
 0 <= x_26 <= 1
 0 <= x_27 <= 1
 0 <= x_28 <= 1
 0 <= x_29 <= 1
 0 <= x_30 <= 1
 0 <= x_31 <= 1
 0 <= x_32 <= 1
 0 <= x_33 <= 1
 0 <= x_34 <= 1
 0 <= x_35 <= 1
 0 <= x_36 <= 1
 0 <= x_37 <= 1
 0 <= x_38 <= 1
 0 <= x_39 <= 1
 0 <= x_40 <= 1
 0 <= x_41 <= 1
 0 <= x_42 <= 1
 0 <= x_43 <= 1
 0 <= x_44 <= 1
 0 <= x_45 <= 1
 0 <= x_46 <= 1
 0 <= x_47 <= 1
 0 <= x_48 <= 1
 0 <= x_49 <= 1
 0 <= x_50 <= 1
 0 <= x_51 <= 1
 0 <= x_52 <= 1
 0 <= x_53 <= 1
 0 <= x_54 <= 1
 0 <= x_55 <= 1
 0 <= x_56 <= 1
 0 <= x_57 <= 1
 0 <= x_58 <= 1
 0 <= x_59 <= 1
 0 <= x_60 <= 1
 0 <= x_61 <= 1

Generals
 x_1
 x_2
 x_3
 x_4
 x_5
 x_6
 x_7
 x_8
 x_9
 x_10
 x_11
 x_12
 x_13
 x_14
 x_15
 x_16
 x_17
 x_18
 x_19
 x_20
 x_21
 x_22
 x_23
 x_24
 x_25
 x_26
 x_27
 x_28
 x_29
 x_30
 x_31
 x_32
 x_33
 x_34
 x_35
 x_36
 x_37
 x_38
 x_39
 x_40
 x_41
 x_42
 x_43
 x_44
 x_45
 x_46
 x_47
 x_48
 x_49
 x_50
 x_51
 x_52
 x_53
 x_54
 x_55
 x_56
 x_57
 x_58
 x_59
 x_60
 x_61

End
